c 173_3_checker.cnf
c
c field = 173
c formula set type = 3_checker
c
p cnf 4 58
338 
340 
342 
-336 
339 
341 
343 
-337 
338 
340 
342 
-346 
339 
341 
343 
-347 
340 
342 
346 
-338 
341 
343 
347 
-339 
340 
342 
346 
-348 
341 
343 
347 
-349 
342 
346 
348 
-340 
343 
347 
349 
-341 
342 
346 
348 
-350 
343 
347 
349 
-351 
346 
348 
350 
-342 
347 
349 
351 
-343 
346 
348 
350 
-352 
347 
349 
351 
-353 
254 
284 
314 
-224 
255 
285 
315 
-225 
254 
284 
314 
-374 
255 
285 
315 
-375 
284 
314 
374 
-254 
285 
315 
375 
-255 
284 
314 
374 
-404 
285 
315 
375 
-405 
314 
374 
404 
-284 
315 
375 
405 
-285 
314 
374 
404 
-434 
315 
375 
405 
-435 
374 
404 
434 
-314 
375 
405 
435 
-315 
248 
280 
312 
-216 
249 
281 
313 
-217 
248 
280 
312 
-376 
249 
281 
313 
-377 
280 
312 
376 
-248 
281 
313 
377 
-249 
280 
312 
376 
-408 
281 
313 
377 
-409 
312 
376 
408 
-280 
313 
377 
409 
-281 
312 
376 
408 
-440 
313 
377 
409 
-441 
376 
408 
440 
-312 
377 
409 
441 
-313 
260 
288 
316 
-232 
261 
289 
317 
-233 
260 
288 
316 
-372 
261 
289 
317 
-373 
288 
316 
372 
-260 
289 
317 
373 
-261 
288 
316 
372 
-400 
289 
317 
373 
-401 
316 
372 
400 
-288 
317 
373 
401 
-289 
316 
372 
400 
-428 
317 
373 
401 
-429 
372 
400 
428 
-316 
373 
401 
429 
-317 
